<number of tasks>
50

<cycle time>
1000

<order strength>
0.596


<task times>
1 48
2 229
3 460
4 274
5 131
6 322
7 36
8 343
9 46
10 465
11 318
12 302
13 480
14 321
15 294
16 75
17 154
18 21
19 197
20 489
21 59
22 153
23 25
24 132
25 533
26 572
27 201
28 216
29 570
30 347
31 35
32 52
33 536
34 186
35 249
36 325
37 244
38 333
39 57
40 90
41 574
42 217
43 26
44 144
45 166
46 74
47 101
48 187
49 29
50 92

<precedence relations>
1,15
2,41
3,14
4,6
5,6
5,7
5,8
6,15
7,9
7,11
7,12
7,13
7,14
8,9
8,10
8,11
8,14
9,15
10,15
11,15
12,32
13,35
13,43
13,44
14,16
14,25
15,17
15,18
15,19
15,20
15,22
15,23
16,21
16,26
17,32
18,24
18,28
18,29
19,40
20,25
20,26
21,32
22,41
23,25
24,41
25,27
25,28
25,29
25,30
26,27
26,30
27,32
28,34
29,33
30,31
31,41
32,34
32,36
32,37
32,38
32,39
33,34
33,35
33,40
33,50
34,41
35,41
37,44
38,42
38,43
39,44
40,42
41,45
41,46
41,47
41,48
41,49
43,50
44,50

<end>
